=1
=2
=0IBM ILOG CPLEX   42.1.0 cb854401 Feb 1, 2023           LEG x86 64bit/Linux    
=1
--- GAMS/Cplex licensed for continuous and discrete problems.
=2
=C
=1
=CReading parameter(s) from "/storage/home/ejm6426/scratch/rtRBA-main/parameterization/kapp/datasets/Rabinowitz2023_batchGlc/min_flux_violation/cplex.opt"
=C>>  optcr = 1E-12
=C>>  optca = 1E-12
=C>>  eprhs = 1E-9
=C>> 
=CFinished reading from "/storage/home/ejm6426/scratch/rtRBA-main/parameterization/kapp/datasets/Rabinowitz2023_batchGlc/min_flux_violation/cplex.opt"
=2
=C
=1
--- GMO setup time: 0.00s
=2
=1
--- Space for names approximately 0.57 Mb
=2
=1
--- Use option 'names no' to turn use of names off
=2
=1
--- GMO memory 7.14 Mb (peak 7.23 Mb)
=2
=1
--- Dictionary memory 0.00 Mb
=2
=1
--- Cplex 22.1.1.0 link memory 0.31 Mb (peak 2.22 Mb)
=2
=1
--- Starting Cplex
=2
=C
Version identifier: 22.1.1.0 | 2022-11-28 | 9160aff4d
CPXPARAM_Advance                                 2
CPXPARAM_Threads                                 1
CPXPARAM_MIP_Display                             4
CPXPARAM_MIP_Pool_Capacity                       0
CPXPARAM_Simplex_Limits_Iterations               1000000
CPXPARAM_Simplex_Tolerances_Feasibility          1.0000000000000001e-09
CPXPARAM_TimeLimit                               1000000
CPXPARAM_MIP_Tolerances_AbsMIPGap                9.9999999999999998e-13
CPXPARAM_MIP_Tolerances_MIPGap                   9.9999999999999998e-13
Tried aggregator 1 time.
LP Presolve eliminated 3032 rows and 8915 columns.
Aggregator did 1677 substitutions.
Reduced LP has 956 rows, 2090 columns, and 14349 nonzeros.
Presolve time = 0.04 sec. (20.11 ticks)

Iteration log . . .
Iteration:     1   Scaled dual infeas =         52649.675075
Iteration:    82   Scaled dual infeas =         46225.389492
Iteration:   163   Scaled dual infeas =         41314.272418
Iteration:   238   Scaled dual infeas =         35622.494637
Iteration:   315   Scaled dual infeas =         23698.809814
Iteration:   431   Scaled dual infeas =         16041.322098
Iteration:   542   Scaled dual infeas =          9473.495754
Iteration:   639   Scaled dual infeas =          3303.088242
Iteration:   738   Scaled dual infeas =           845.689331
Iteration:   877   Dual objective     = -13403369060750.730469
Iteration:  1003   Dual objective     = -1472692269912.147949
Perturbation started.
Iteration:  1079   Dual objective     = -852299195810.064087
Iteration:  1184   Dual objective     = -172852976551.448944
Iteration:  1274   Dual objective     =  -51952770403.451736
Iteration:  1354   Dual objective     =  -13563146940.474771
Iteration:  1418   Dual objective     =   -1539260120.385169
Iteration:  1489   Dual objective     =        729987.615944
Iteration:  1553   Dual objective     =       6512433.335057
Iteration:  1617   Dual objective     =      10451273.556620
Iteration:  1687   Dual objective     =      13343323.769835
Iteration:  1758   Dual objective     =      14711377.259128
Iteration:  1843   Dual objective     =      16721764.440832
Iteration:  1939   Dual objective     =      18257272.464345
Iteration:  2013   Dual objective     =      20267511.379766
Iteration:  2090   Dual objective     =      20267517.335849
Removing perturbation.
=C
=1
--- LP status (3): infeasible.
=2
=1
--- Cplex Time: 0.24sec (det. 146.25 ticks)

=2
=C
=CModel has been proven infeasible
=C
